# Solution for model GasLib-40
# Objective value = 4.8583827014684715e+01
loadshed[innode_1] 0
loadshed[innode_2] 0
loadshed[innode_3] 0
loadshed[innode_4] 0
loadshed[innode_5] 0
loadshed[innode_6] 0
loadshed[innode_7] 0
loadshed[innode_8] 0
loadshed[source_1] -1.4522595939632477e-01
loadshed[source_2] 1.8807800067034641e-02
loadshed[source_3] 4.3373514110446476e-01
loadshed[sink_1] 8.5798212208059277e-02
loadshed[sink_2] 0
loadshed[sink_3] 0
loadshed[sink_4] 0
loadshed[sink_5] 0
loadshed[sink_6] 0
loadshed[sink_7] 0
loadshed[sink_8] 0
loadshed[sink_9] 0
loadshed[sink_10] 0
loadshed[sink_11] 0
loadshed[sink_12] 1
loadshed[sink_13] 0
loadshed[sink_14] 0
loadshed[sink_15] 0
loadshed[sink_16] 0
loadshed[sink_17] 0
loadshed[sink_18] 0
loadshed[sink_19] 0
loadshed[sink_20] 0
loadshed[sink_21] 1
loadshed[sink_22] 0
loadshed[sink_23] 0
loadshed[sink_24] 8.8493261161979542e-01
loadshed[sink_25] 0
loadshed[sink_26] 0
loadshed[sink_27] 0
loadshed[sink_28] 0
loadshed[sink_29] 0
flow[source_1,sink_3] 1.8104909003928702e+02
flow[innode_1,sink_16] 1.6354166666666970e+01
flow[innode_6,sink_13] 2.4958197828091066e+01
flow[sink_13,sink_14] 8.6040311614243983e+00
flow[sink_14,sink_10] -7.75013550524227
flow[sink_25,sink_26] 0
flow[sink_26,sink_9] 6.6581738588394614e+01
flow[sink_9,sink_18] 5.0227571921727943e+01
flow[sink_26,sink_4] -82.9359052550613
flow[sink_4,sink_20] -1.0298187556994480e+02
flow[sink_18,sink_6] 3.3873405255061272e+01
flow[sink_25,innode_8] -1.4834075670595064e+02
flow[sink_6,sink_7] -1.3785936482786127e+01
flow[sink_6,sink_22] 31.3051750711807
flow[sink_7,sink_24] 1.8818312474679262e+00
flow[sink_22,sink_1] 1.4951008404514033e+01
flow[sink_24,sink_21] 0
flow[sink_21,sink_12] 0
flow[sink_7,sink_5] -3.2021934396920670e+01
flow[sink_5,sink_17] -4.8376101063587356e+01
flow[sink_17,sink_4] -3.6918036482168191e+00
flow[sink_17,sink_8] -6.1038464082037194e+01
flow[sink_3,sink_23] 16.3541666666697
flow[sink_8,sink_20] -7.7392630748703880e+01
flow[sink_25,sink_20] 1.9672867298531531e+02
flow[sink_25,sink_15] -8.9700280774123485e+01
flow[sink_15,sink_29] -5.9540952477085852e+01
flow[sink_29,sink_28] 1.6354166666667879e+01
flow[sink_29,sink_2] 62.867661630371
flow[sink_2,sink_15] 4.6513494963704261e+01
flow[sink_29,innode_7] -1.5511694744079136e+02
flow[innode_4,sink_19] 73.1668021719096
flow[sink_19,innode_3] 56.8126355052425
flow[innode_4,innode_5] 1.6354166666679703e+01
flow[sink_27,innode_5] -1.6354166666679703e+01
flow[sink_27,sink_19] 0
flow[sink_10,sink_11] 3.2708333333333641e+01
flow[sink_10,innode_2] 0
flow[sink_10,innode_3] -56.8126355052425
flow[innode_6,sink_25] -2.4958197828091066e+01
flow[sink_11,innode_1] 1.6354166666666970e+01
flow[sink_19,innode_2] 0
flow[source_3,innode_4] 89.5209688385893
flow[source_2,innode_7] 1.5511694744079136e+02
flow[sink_3,innode_8] 1.4834075670595064e+02
pressure[innode_1] 7.4746861628115454e+01
pressure[innode_2] 74.898562935719
pressure[innode_3] 7.7923271265948159e+01
pressure[innode_4] 81.01325
pressure[innode_5] 8.1002000741808772e+01
pressure[innode_6] 7.4684980429031512e+01
pressure[innode_7] 81.01325
pressure[innode_8] 8.0408072055257946e+01
pressure[source_1] 81.01325
pressure[source_2] 81.01325
pressure[source_3] 81.01325
pressure[sink_1] 1.0132500000000002e+00
pressure[sink_2] 7.5271970506345482e+01
pressure[sink_3] 8.0408072055257946e+01
pressure[sink_4] 20.2302370835545
pressure[sink_5] 1.6485478664730486e+01
pressure[sink_6] 2.9785585137384576e+00
pressure[sink_7] 3.1678065609480459e+00
pressure[sink_8] 2.2392288345311446e+01
pressure[sink_9] 5.7004625444686212e+00
pressure[sink_10] 74.898562935719
pressure[sink_11] 7.4746861628115454e+01
pressure[sink_12] 1.01325
pressure[sink_13] 7.4547390055307574e+01
pressure[sink_14] 7.4531992408642807e+01
pressure[sink_15] 7.5120114196698154e+01
pressure[sink_16] 7.3725211793297774e+01
pressure[sink_17] 2.0089148521465887e+01
pressure[sink_18] 3.8830792884299870e+00
pressure[sink_19] 7.8049076413941449e+01
pressure[sink_20] 2.7785466314953261e+01
pressure[sink_21] 1.01325
pressure[sink_22] 1.9857496517388320e+00
pressure[sink_23] 8.0243354043598160e+01
pressure[sink_24] 1.01325
pressure[sink_25] 7.4684980429031512e+01
pressure[sink_26] 9.68555144172096
pressure[sink_27] 8.0866291377726043e+01
pressure[sink_28] 76.5691970522851
pressure[sink_29] 7.6864479325902280e+01
interdiction[source_1,sink_3] 0
interdiction[innode_1,sink_16] 0
interdiction[innode_6,sink_13] 0
interdiction[sink_13,sink_14] 0
interdiction[sink_14,sink_10] 0
interdiction[sink_25,sink_26] 1
interdiction[sink_26,sink_9] 0
interdiction[sink_9,sink_18] 0
interdiction[sink_26,sink_4] 0
interdiction[sink_4,sink_20] 0
interdiction[sink_18,sink_6] 0
interdiction[sink_25,innode_8] 0
interdiction[sink_6,sink_7] 0
interdiction[sink_6,sink_22] 0
interdiction[sink_7,sink_24] 0
interdiction[sink_22,sink_1] 0
interdiction[sink_24,sink_21] 0
interdiction[sink_21,sink_12] 0
interdiction[sink_7,sink_5] 0
interdiction[sink_5,sink_17] 0
interdiction[sink_17,sink_4] 0
interdiction[sink_17,sink_8] 0
interdiction[sink_3,sink_23] 0
interdiction[sink_8,sink_20] 0
interdiction[sink_25,sink_20] 0
interdiction[sink_25,sink_15] 0
interdiction[sink_15,sink_29] 0
interdiction[sink_29,sink_28] 0
interdiction[sink_29,sink_2] 0
interdiction[sink_2,sink_15] 0
interdiction[sink_29,innode_7] 0
interdiction[innode_4,sink_19] 0
interdiction[sink_19,innode_3] 0
interdiction[innode_4,innode_5] 0
interdiction[sink_27,innode_5] 0
interdiction[sink_27,sink_19] 1
interdiction[sink_10,sink_11] 0
interdiction[sink_10,innode_2] 0
interdiction[sink_10,innode_3] 0
interdiction[innode_6,sink_25] 0
interdiction[sink_11,innode_1] 0
interdiction[sink_19,innode_2] 1
interdiction[source_3,innode_4] 0
interdiction[source_2,innode_7] 0
interdiction[sink_3,innode_8] 0
WCcheckFlow[source_1,sink_3] 39
WCcheckFlow[innode_1,sink_16] 1
WCcheckFlow[innode_6,sink_13] 13
WCcheckFlow[sink_13,sink_14] 12
WCcheckFlow[sink_14,sink_10] 11
WCcheckFlow[sink_25,sink_26] 0
WCcheckFlow[sink_26,sink_9] 12
WCcheckFlow[sink_9,sink_18] 11
WCcheckFlow[sink_26,sink_4] -13
WCcheckFlow[sink_4,sink_20] -14
WCcheckFlow[sink_18,sink_6] 10
WCcheckFlow[sink_25,innode_8] -36
WCcheckFlow[sink_6,sink_7] 7
WCcheckFlow[sink_6,sink_22] 2
WCcheckFlow[sink_7,sink_24] 3
WCcheckFlow[sink_22,sink_1] 1
WCcheckFlow[sink_24,sink_21] 2
WCcheckFlow[sink_21,sink_12] 1
WCcheckFlow[sink_7,sink_5] 3
WCcheckFlow[sink_5,sink_17] 2
WCcheckFlow[sink_17,sink_4] 0
WCcheckFlow[sink_17,sink_8] 1
WCcheckFlow[sink_3,sink_23] 1
WCcheckFlow[sink_8,sink_20] 0
WCcheckFlow[sink_25,sink_20] 15
WCcheckFlow[sink_25,sink_15] 6
WCcheckFlow[sink_15,sink_29] 5
WCcheckFlow[sink_29,sink_28] 1
WCcheckFlow[sink_29,sink_2] 1
WCcheckFlow[sink_2,sink_15] 0
WCcheckFlow[sink_29,innode_7] 2
WCcheckFlow[innode_4,sink_19] -4
WCcheckFlow[sink_19,innode_3] -5
WCcheckFlow[innode_4,innode_5] 2
WCcheckFlow[sink_27,innode_5] -1
WCcheckFlow[sink_27,sink_19] 0
WCcheckFlow[sink_10,sink_11] 3
WCcheckFlow[sink_10,innode_2] 1
WCcheckFlow[sink_10,innode_3] 6
WCcheckFlow[innode_6,sink_25] -14
WCcheckFlow[sink_11,innode_1] 2
WCcheckFlow[sink_19,innode_2] 0
WCcheckFlow[source_3,innode_4] -1
WCcheckFlow[source_2,innode_7] -1
WCcheckFlow[sink_3,innode_8] 37
